c turning on binary mode checking
c parsing input formula with 259840 variables and 1039919 clauses
c finished parsing, read 2538471 bytes from proof file
c detected empty clause; start verification via backward checking
c 3325 of 1039919 clauses in core                            
c 1053 of 104944 lemmas in core using 29690 resolution steps
c 0 RAT lemmas in core; 130 redundant literals in core lemmas
s VERIFIED
c verification time: 1.206 seconds
